{"lblp_lower": [783.8707156899495, 840.2639213574682, 879.9819654675579, 903.0710073217032, 909.0000000000001], "cuttingPlaneBendInfo": [{"tot_cut_value": 0, "TOT_gen_cut": 0, "tot_time_opt": 0, "max_time_opt": 0}, {"tot_cut_value": 0, "TOT_gen_cut": 0, "tot_time_opt": 0, "max_time_opt": 0}, {"tot_cut_value": 0, "TOT_gen_cut": 0, "tot_time_opt": 0, "max_time_opt": 0}, {"tot_cut_value": 0, "TOT_gen_cut": 0, "tot_time_opt": 0, "max_time_opt": 0}, {"tot_cut_value": 0, "TOT_gen_cut": 0, "tot_time_opt": 0, "max_time_opt": 0}], "time_compress": [0, 0, 0, 0, 0], "ub_lp": [1049.4, 970.5000000000002, 966.7, 908.9999999999999, 909.0000000000001], "prob_sizes_at_start": [{"timeGraph": 65, "ngGraph": 52}, {"timeGraph": 79, "ngGraph": 76}, {"timeGraph": 94, "ngGraph": 78}, {"timeGraph": 107, "ngGraph": 81}, {"timeGraph": 111, "ngGraph": 82}], "prob_sizes_after_compress": [{"timeGraph": 22, "ngGraph": 40}, {"timeGraph": 28, "ngGraph": 47}, {"timeGraph": 44, "ngGraph": 46}, {"timeGraph": 47, "ngGraph": 37}, {"timeGraph": 49, "ngGraph": 27}], "prob_sizes_after_split": [{"timeGraph": 79, "ngGraph": 76}, {"timeGraph": 94, "ngGraph": 78}, {"timeGraph": 107, "ngGraph": 81}, {"timeGraph": 111, "ngGraph": 82}, {"timeGraph": 90, "ngGraph": 59}], "did_compress": [true, true, true, true, true], "lp_time_project": [0.5055031776428223, 0.24926090240478516, 0.11656498908996582, 0.12354087829589844, 0.08632874488830566], "lp_time_LB": [0.0876920223236084, 0.0944051742553711, 0.07357597351074219, 0.04408097267150879, 0.011704206466674805], "ilp_time": [], "history_of_graphs_by_iter": [], "ROOT_LP_PRIOR_ADDING_CUTS": 909.0000000000001, "OUR_ilp_objective": 909.0000000000001, "OUR_MIP_Lower_Bound": 909.0000000000001, "OUR_ilp_time": 0.005461215972900391, "OUR_gurobi_MILP_str": "Gurobi Optimizer version 12.0.1 build v12.0.1rc0 (mac64[arm] - Darwin 24.5.0 24F74)\n\nCPU model: Apple M1\nThread count: 8 physical cores, 8 logical processors, using up to 8 threads\n\nNon-default parameters:\nTimeLimit  3000\n\nWLS license 2690165 - registered to Optym\nOptimize a model with 6118 rows, 2206 columns and 20654 nonzeros\nModel fingerprint: 0xa844055c\nVariable types: 102 continuous, 2104 integer (1665 binary)\nCoefficient statistics:\n  Matrix range     [2e-01, 2e+02]\n  Objective range  [5e+00, 8e+01]\n  Bounds range     [1e-01, 2e+02]\n  RHS range        [1e+00, 2e+02]\nUsing branch priorities.\nPresolve removed 6118 rows and 2206 columns\nPresolve time: 0.00s\nPresolve: All rows and columns removed\n\nExplored 0 nodes (0 simplex iterations) in 0.01 seconds (0.01 work units)\nThread count was 1 (of 8 available processors)\n\nSolution count 1: 909 \n\nOptimal solution found (tolerance 1.00e-04)\nBest objective 9.090000000000e+02, best bound 9.090000000000e+02, gap 0.0000%\n", "jy_opt": {"ParetoEps": 1e-05, "turn_off_time_windows": false, "deactivate_time_graph": false, "deactivate_demand_graph": false, "epsilon": 0.0001, "weight_slack_projector": 1e-05, "weight_compress": 0.01, "num_cust_use": 50, "dem_step_sz": 1, "time_step_sz": 1, "use_compression": 1, "max_iterations_loop_compress_project": 50, "do_round_dist_times": 1, "my_shift_bet_time_win": 0.0001, "num_terms_per_bin_init_construct": 100, "allOneBig_init": 0, "min_inc_2_compress": 1e-05, "save_graph_each_iter": 0, "use_Xpress": 0, "use_ineq": false, "xpress_file_loc": "/Users/julian/Documents/FICO_Xpress_Config/xpauth.xpr", "run_baseline": 0, "verbose": 0, "use_NG_graph": 1, "num_NG": 9, "in_demo_mode": 0, "threshold_split": 0.1, "offset_cost_edge_project": 0, "use_classic_compress": 1, "use_classic_compress_last": 1, "num_thresh_split_projector": 1000, "lplb_solver": 4, "compresss_solver": 0, "proj_solver": 4, "use_julians_custom_lp_solver": 0, "do_ilp": 1, "roundingDiscretization_num_digits_keep": 3, "doExrtraRemovalEdgesLB": 0, "use_gurobi": 1, "max_ILP_time": 3000, "use_fancy_ng_graph": 1, "use_dem_graph": 0, "use_time_graph": 1, "num_multiplys_demand": 0, "DEBUG_ALLOW_DUMB_EDGES": 0, "add_all_ng_split_at_end": 0, "do_split_based_init": 0, "think_compress": [0], "use_delta_in_milp": 1, "use_delta_in_lp": 1, "turn_off_non_active_fg_project": 0, "use_new_valid_ineq": 0, "digit_mult_use": 10, "use_branch_on_g": true, "LAB_MP_ON": 0, "LAB_MP_neigh_use_power": 9, "LAB_MP_num_ineq_use": 10, "do_remove_actions_from_incumbant": true, "ub_use_remove": 909.0, "use_packing_in_construction": 1, "maxVarsAdd_in_ITER": 10, "use_ng_size_init": 0, "do_presolve": 0, "use_diving_ineq": 1, "BEND_MIN_LP_OBJECTIVE_CUT": 0.1, "BEND_USE_RAND": 0, "BEND_MAX_SIZE_CHOOSE_K": 230, "BEND_VAL_STOP_ADDING_CUTS": 100000000, "BEND_MY_SIZES_USE": [9], "NUMERICAL_BEND_OFFSET_COST_CUT": 0.0001, "NUMERICAL_BEND_EPSILON_MULT_PARETO_OBJ": 0.001, "NO_PARETO_NUMERICAL_BEND_OFFSET_COST_CUT": 0, "NO_PARETO_BEND_VAL_STOP_ADDING_CUTS": 1, "NO_PARETO_EPSILON_MAX_VAL_CON": 0.01, "BENDERS_NEIGH_SZ_USE": 9, "Actions_of_given_sol": [], "all_vars_binary": 1, "restore_after_each_step": 1, "use_ng": 1, "compress_solver": 1, "DEBUG_NG_turn_off_CLEAN": false, "max_nodes_split": Infinity}, "output_ilp_solution": {"delta_capRem_0": 18.4, "delta_timeRem_0": 170.0, "delta_capRem_1": 0.7, "delta_timeRem_1": 110.8, "delta_capRem_2": 1.3, "delta_timeRem_2": 33.0, "delta_capRem_3": 11.1, "delta_timeRem_3": 81.0, "delta_capRem_4": 2.6, "delta_timeRem_4": 53.0, "delta_capRem_5": 0.3, "delta_timeRem_5": 121.0, "delta_capRem_6": 0.5, "delta_timeRem_6": 32.0, "delta_capRem_7": 3.8, "delta_timeRem_7": 135.0, "delta_capRem_8": 5.1, "delta_timeRem_8": 123.0, "delta_capRem_9": 4.3, "delta_timeRem_9": 106.0, "delta_capRem_10": 20.0, "delta_timeRem_10": 163.0, "delta_capRem_11": 1.9, "delta_timeRem_11": 25.0, "delta_capRem_12": 2.3, "delta_timeRem_12": 61.0, "delta_capRem_13": 20.0, "delta_timeRem_13": 198.0, "delta_capRem_14": 2.0, "delta_timeRem_14": 159.0, "delta_capRem_15": 2.2, "delta_timeRem_15": 149.0, "delta_capRem_16": 2.8, "delta_timeRem_16": 73.0, "delta_capRem_17": 20.0, "delta_timeRem_17": 143.0, "delta_capRem_18": 8.8, "delta_timeRem_18": 144.0, "delta_capRem_19": 15.3, "delta_timeRem_19": 104.0, "delta_capRem_20": 20.0, "delta_timeRem_20": 203.0, "delta_capRem_21": 12.9, "delta_timeRem_21": 123.0, "delta_capRem_22": 15.8, "delta_timeRem_22": 152.0, "delta_capRem_23": 2.2, "delta_timeRem_23": 77.0, "delta_capRem_24": 9.2, "delta_timeRem_24": 58.0, "delta_capRem_25": 1.7, "delta_timeRem_25": 22.0, "delta_capRem_26": 20.0, "delta_timeRem_26": 193.0, "delta_capRem_27": 20.0, "delta_timeRem_27": 191.0, "delta_capRem_28": 3.1, "delta_timeRem_28": 157.0, "delta_capRem_29": 17.4, "delta_timeRem_29": 149.0, "delta_capRem_30": 2.7, "delta_timeRem_30": 28.0, "delta_capRem_31": 2.3, "delta_timeRem_31": 79.0, "delta_capRem_32": 6.2, "delta_timeRem_32": 193.0, "delta_capRem_33": 2.7, "delta_timeRem_33": 66.9, "delta_capRem_34": 3.5, "delta_timeRem_34": 87.0, "delta_capRem_35": 20.0, "delta_timeRem_35": 188.6, "delta_capRem_36": 20.0, "delta_timeRem_36": 208.8, "delta_capRem_37": 4.6, "delta_timeRem_37": 137.0, "delta_capRem_38": 18.9, "delta_timeRem_38": 176.0, "delta_capRem_39": 0.9, "delta_timeRem_39": 135.0, "delta_capRem_40": 1.2, "delta_timeRem_40": 133.0, "delta_capRem_41": 2.5, "delta_timeRem_41": 189.0, "delta_capRem_42": 3.0, "delta_timeRem_42": 98.0, "delta_capRem_43": 18.0, "delta_timeRem_43": 157.8, "delta_capRem_44": 20.0, "delta_timeRem_44": 198.0, "delta_capRem_45": 2.9, "delta_timeRem_45": 103.0, "delta_capRem_46": 19.5, "delta_timeRem_46": 171.4, "delta_capRem_47": 4.1, "delta_timeRem_47": 49.2, "delta_capRem_48": 7.1, "delta_timeRem_48": 122.0, "delta_capRem_49": 20.0, "delta_timeRem_49": 213.1, "act_0_29": 1, "act_1_51": 1, "act_2_51": 1, "act_3_24": 1, "act_4_51": 1, "act_5_51": 1, "act_6_51": 1, "act_7_45": 1, "act_8_34": 1, "act_9_30": 1, "act_10_18": 1, "act_11_51": 1, "act_12_51": 1, "act_13_43": 1, "act_14_40": 1, "act_15_5": 1, "act_16_4": 1, "act_17_9": 1, "act_18_48": 1, "act_19_31": 1, "act_20_38": 1, "act_21_3": 1, "act_22_21": 1, "act_23_11": 1, "act_24_25": 1, "act_25_51": 1, "act_26_0": 1, "act_27_28": 1, "act_28_23": 1, "act_29_19": 1, "act_30_51": 1, "act_31_51": 1, "act_32_8": 1, "act_33_2": 1, "act_34_33": 1, "act_35_46": 1, "act_36_41": 1, "act_37_42": 1, "act_38_22": 1, "act_39_51": 1, "act_40_1": 1, "act_41_14": 1, "act_42_12": 1, "act_43_37": 1, "act_44_15": 1, "act_45_16": 1, "act_46_7": 1, "act_47_6": 1, "act_48_47": 1, "act_49_32": 1, "act_50_10": 1, "act_50_13": 1, "act_50_17": 1, "act_50_20": 1, "act_50_26": 1, "act_50_27": 1, "act_50_35": 1, "act_50_36": 1, "act_50_39": 1, "act_50_44": 1, "act_50_49": 1}, "Actions_of_given_sol": "none just used source and sink terms", "actions_used": ["act_0_29", "act_1_51", "act_2_51", "act_3_24", "act_4_51", "act_5_51", "act_6_51", "act_7_45", "act_8_34", "act_9_30", "act_10_18", "act_11_51", "act_12_51", "act_13_43", "act_14_40", "act_15_5", "act_16_4", "act_17_9", "act_18_48", "act_19_31", "act_20_38", "act_21_3", "act_22_21", "act_23_11", "act_24_25", "act_25_51", "act_26_0", "act_27_28", "act_28_23", "act_29_19", "act_30_51", "act_31_51", "act_32_8", "act_33_2", "act_34_33", "act_35_46", "act_36_41", "act_37_42", "act_38_22", "act_39_51", "act_40_1", "act_41_14", "act_42_12", "act_43_37", "act_44_15", "act_45_16", "act_46_7", "act_47_6", "act_48_47", "act_49_32", "act_50_10", "act_50_13", "act_50_17", "act_50_20", "act_50_26", "act_50_27", "act_50_35", "act_50_36", "act_50_39", "act_50_44", "act_50_49"], "init_default_solution_is_empty": false, "objective_of_initial_sol": 2620.8000000000006, "my_paths": "[[50, 10, 18, 48, 47, 6, 51], [50, 13, 43, 37, 42, 12, 51], [50, 17, 9, 30, 51], [50, 20, 38, 22, 21, 3, 24, 25, 51], [50, 26, 0, 29, 19, 31, 51], [50, 27, 28, 23, 11, 51], [50, 35, 46, 7, 45, 16, 4, 51], [50, 36, 41, 14, 40, 1, 51], [50, 39, 51], [50, 44, 15, 5, 51], [50, 49, 32, 8, 34, 33, 2, 51]]"}